8
2147483647 80 9 99 22 79 6 87 
80 2147483647 27 10 70 52 91 56 
9 27 2147483647 100 19 29 30 27 
99 10 100 2147483647 51 29 98 73 
22 70 19 51 2147483647 29 37 35 
79 52 29 29 29 2147483647 100 59 
6 91 30 98 37 100 2147483647 71 
87 56 27 73 35 59 71 2147483647 
